Hodnota ucelovej funkcie: 22501
Pocet zaradenych prvkov: 350
Celkova hmotnost batoha: 19047
[0, 1, 3, 4, 6, 9, 11, 12, 13, 14, 15, 16, 17, 18, 22, 23, 24, 25, 27, 28, 29, 30, 31, 33, 34, 35, 36, 37, 38, 39, 40, 41, 42, 43, 44, 47, 48, 49, 50, 52, 53, 54, 55, 56, 57, 59, 60, 61, 62, 65, 66, 67, 68, 69, 71, 72, 77, 79, 80, 81, 83, 84, 85, 86, 89, 90, 91, 92, 93, 94, 95, 96, 97, 98, 99, 100, 102, 103, 104, 106, 107, 108, 109, 111, 114, 116, 118, 119, 120, 122, 124, 125, 126, 128, 129, 130, 133, 136, 137, 138, 140, 142, 143, 144, 146, 147, 148, 149, 150, 152, 153, 154, 155, 158, 160, 161, 162, 163, 165, 166, 167, 169, 170, 171, 172, 174, 175, 178, 179, 180, 181, 182, 184, 185, 187, 188, 190, 191, 192, 197, 199, 201, 204, 206, 207, 208, 209, 212, 214, 216, 217, 218, 220, 221, 222, 223, 224, 225, 226, 227, 230, 231, 233, 234, 235, 237, 238, 239, 240, 241, 242, 245, 246, 247, 248, 249, 250, 251, 252, 253, 254, 255, 256, 257, 258, 260, 262, 263, 264, 265, 267, 270, 272, 273, 274, 275, 276, 277, 278, 279, 281, 282, 283, 285, 287, 289, 290, 291, 292, 293, 295, 296, 297, 298, 299, 300, 301, 302, 303, 305, 306, 308, 309, 310, 311, 312, 313, 314, 315, 316, 317, 319, 320, 321, 322, 323, 325, 327, 329, 330, 331, 332, 333, 338, 339, 340, 342, 343, 347, 349, 351, 353, 354, 355, 360, 363, 364, 365, 366, 371, 372, 373, 376, 377, 378, 379, 382, 383, 387, 388, 389, 390, 391, 392, 393, 394, 395, 396, 398, 401, 402, 403, 405, 406, 407, 408, 409, 410, 411, 413, 414, 415, 416, 417, 418, 421, 423, 425, 426, 427, 429, 430, 431, 432, 433, 434, 437, 438, 441, 442, 443, 446, 447, 448, 449, 450, 452, 454, 455, 456, 457, 458, 459, 460, 462, 464, 465, 467, 468, 471, 472, 474, 475, 476, 478, 479, 480, 481, 482, 484, 485, 486, 487, 488, 491, 492, 493, 494, 495, 497]